results/res_prop_muc/res_Cimatti_mathsat_cores/QF_UF/SEQ015_size3.smt.smt2.out

real	0m0.123s
user	0m0.084s
sys	0m0.003s
